6732
1 1 0 0 0 0 0 0 0 1 0 0 1 0 1 0 0 1 0 0 0 1 0 0 0 0 0 0 1 1 
0 0 0 0 1 0 1 0 29 1 0 1 0 1 14 1 14 14 1 9 9 9 14 9 9 9 9 12 12 12 12 12 12 14 17 14 17 17 17 17 17 17 17 17 17 12 17 17 21 17 21 17 0 21 21 21 21 28 0 28 28 28 28 28 29 28 29 29 29 28 
